0 84 
1 88 
2 90 
3 89 
4 89 
5 90 
6 89 
7 92 
8 93 
9 84 
10 88 
11 87 
12 86 
13 85 
14 86 
15 84 
16 82 
17 82 
18 82 
19 82 
20 82 
21 84 
22 83 
23 82 
24 79 
25 77 
26 74 
27 70 
28 71 
29 68 
30 69 
31 69 
32 69 
33 69 
34 67 
35 66 
36 68 
37 68 
38 67 
39 67 
40 66 
41 63 
42 63 
43 61 
44 58 
45 56 
46 56 
47 58 
48 57 
49 56 
50 55 
51 53 
52 51 
53 50 
54 50 
55 49 
56 46 
57 43 
58 43 
59 40 
60 41 
61 41 
62 39 
63 36 
64 34 
65 33 
66 35 
67 31 
68 29 
69 27 
70 27 
71 24 
72 22 
73 21 
74 21 
75 17 
76 16 
77 15 
78 13 
79 13 
80 14 
81 13 
82 11 
83 11 
84 10 
85 9 
86 8 
87 6 
88 3 
89 4 
90 3 
91 3 
92 2 
93 3 
94 1 
95 0 
96 0 

